NAME : tsp_412_sol.txt
COMMENT : OR-Tools Guided Local Search
TYPE : TOUR
DIMENSION : 50
COST : 5958
STATUS : ROUTING_SUCCESS
GAP : 0.00% (Reference Solution)
TOUR_SECTION
1
42
18
19
29
34
27
17
49
15
6
23
11
32
36
25
40
8
28
38
47
12
39
46
20
7
22
4
33
13
30
16
31
9
35
43
50
37
5
21
10
14
24
48
41
45
3
2
26
44
-1
